# set
set V := C1 C2 C3 C4 C5 C6 C7 C8 C9 C10 ;
set F := F11 F12 F13 F14 F15 F11_1 F11_2 F11_3 F11_4 F12_1 F12_2 F12_3 F12_4 F13_1 F13_2 F13_3 F13_4 F14_1 F14_2 F14_3 F14_4 F15_1 F15_2 F15_3 F15_4 ;
set D0 := N0;
set Dσ := Nσ;

# param
param Cf := 200;		# ECV fixed cost
param C := 700;		# ECV max load
param Q := 77.75;		# ECV/BSV battery level
param r := 1;		# ECV consumption

param Cr := 100;		# recharging cost
param Ct := 10;		# travel cost
param Cs ;		# battery swap cost
param n := 10;		# number of customers
param g := 10.41;	# recharging rate

param m :=
N0 0
C1 10
C2 10
C3 20
C4 40
C5 40
C6 20
C7 10
C8 40
C9 10
C10 20
F11 0
F11_1 0
F11_2 0
F11_3 0
F11_4 0
F12 0
F12_1 0
F12_2 0
F12_3 0
F12_4 0
F13 0
F13_1 0
F13_2 0
F13_3 0
F13_4 0
F14 0
F14_1 0
F14_2 0
F14_3 0
F14_4 0
F15 0
F15_1 0
F15_2 0
F15_3 0
F15_4 0
Nσ 0
;

param e :=
N0 0
C1 0
C2 303
C3 1641
C4 1934
C5 1725
C6 2887
C7 116
C8 2504
C9 2791
C10 497
F11 0
F11_1 0
F11_2 0
F11_3 0
F11_4 0
F12 0
F12_1 0
F12_2 0
F12_3 0
F12_4 0
F13 0
F13_1 0
F13_2 0
F13_3 0
F13_4 0
F14 0
F14_1 0
F14_2 0
F14_3 0
F14_4 0
F15 0
F15_1 0
F15_2 0
F15_3 0
F15_4 0
Nσ 0
;

param l :=
N0 3390
C1 3275
C2 463
C3 1801
C4 2094
C5 1885
C6 3047
C7 276
C8 2664
C9 2951
C10 657
F11 3390
F11_1 3390
F11_2 3390
F11_3 3390
F11_4 3390
F12 3390
F12_1 3390
F12_2 3390
F12_3 3390
F12_4 3390
F13 3390
F13_1 3390
F13_2 3390
F13_3 3390
F13_4 3390
F14 3390
F14_1 3390
F14_2 3390
F14_3 3390
F14_4 3390
F15 3390
F15_1 3390
F15_2 3390
F15_3 3390
F15_4 3390
Nσ 3390
;

param s :=
N0 0
C1 90
C2 90
C3 90
C4 90
C5 90
C6 90
C7 90
C8 90
C9 90
C10 90
F11 0
F11_1 0
F11_2 0
F11_3 0
F11_4 0
F12 0
F12_1 0
F12_2 0
F12_3 0
F12_4 0
F13 0
F13_1 0
F13_2 0
F13_3 0
F13_4 0
F14 0
F14_1 0
F14_2 0
F14_3 0
F14_4 0
F15 0
F15_1 0
F15_2 0
F15_3 0
F15_4 0
Nσ 0
;

param d : N0 C1 C2 C3 C4 C5 C6 C7 C8 C9 C10 F11 F11_1 F11_2 F11_3 F11_4 F12 F12_1 F12_2 F12_3 F12_4 F13 F13_1 F13_2 F13_3 F13_4 F14 F14_1 F14_2 F14_3 F14_4 F15 F15_1 F15_2 F15_3 F15_4 Nσ  :=
N0 0.0000 24.1661 20.6155 31.0483 40.3113 35.0571 11.6619 15.0000 24.0832 16.7631 25.2982 0.0000 0.0000 0.0000 0.0000 0.0000 37.0540 37.0540 37.0540 37.0540 37.0540 38.0789 38.0789 38.0789 38.0789 38.0789 24.0832 24.0832 24.0832 24.0832 24.0832 24.0208 24.0208 24.0208 24.0208 24.0208 0.0000
C1 24.1661 0.0000 44.5982 19.6977 61.5549 34.6554 34.4093 38.3275 47.7074 37.4833 46.0435 24.1661 24.1661 24.1661 24.1661 24.1661 19.2094 19.2094 19.2094 19.2094 19.2094 59.4138 59.4138 59.4138 59.4138 59.4138 40.4475 40.4475 40.4475 40.4475 40.4475 26.9258 26.9258 26.9258 26.9258 26.9258 24.1661
C2 20.6155 44.5982 0.0000 50.0899 30.0000 43.8634 14.8661 7.0711 11.1803 18.6011 13.6015 20.6155 20.6155 20.6155 20.6155 20.6155 57.0789 57.0789 57.0789 57.0789 57.0789 28.0179 28.0179 28.0179 28.0179 28.0179 21.0950 21.0950 21.0950 21.0950 21.0950 34.6699 34.6699 34.6699 34.6699 34.6699 20.6155
C3 31.0483 19.6977 50.0899 0.0000 56.8243 53.6004 36.0555 45.7056 48.6621 35.9026 56.3205 31.0483 31.0483 31.0483 31.0483 31.0483 9.2195 9.2195 9.2195 9.2195 9.2195 55.0091 55.0091 55.0091 55.0091 55.0091 53.6656 53.6656 53.6656 53.6656 53.6656 44.5533 44.5533 44.5533 44.5533 44.5533 31.0483
C4 40.3113 61.5549 30.0000 56.8243 0.0000 72.2772 28.6531 35.3553 19.1050 24.2074 43.1856 40.3113 40.3113 40.3113 40.3113 40.3113 65.8635 65.8635 65.8635 65.8635 65.8635 2.2361 2.2361 2.2361 2.2361 2.2361 51.0392 51.0392 51.0392 51.0392 51.0392 61.9839 61.9839 61.9839 61.9839 61.9839 40.3113
C5 35.0571 34.6554 43.8634 53.6004 72.2772 0.0000 45.1774 37.3363 53.4509 51.0882 34.8281 35.0571 35.0571 35.0571 35.0571 35.0571 53.7587 53.7587 53.7587 53.7587 53.7587 70.0928 70.0928 70.0928 70.0928 70.0928 24.8395 24.8395 24.8395 24.8395 24.8395 11.0454 11.0454 11.0454 11.0454 11.0454 35.0571
C6 11.6619 34.4093 14.8661 36.0555 28.6531 45.1774 0.0000 13.4536 13.4164 6.0828 25.4558 11.6619 11.6619 11.6619 11.6619 11.6619 43.7379 43.7379 43.7379 43.7379 43.7379 26.4197 26.4197 26.4197 26.4197 26.4197 28.6356 28.6356 28.6356 28.6356 28.6356 34.3657 34.3657 34.3657 34.3657 34.3657 11.6619
C7 15.0000 38.3275 7.0711 45.7056 35.3553 37.3363 13.4536 0.0000 16.2788 18.8680 12.0416 15.0000 15.0000 15.0000 15.0000 15.0000 52.0384 52.0384 52.0384 52.0384 52.0384 33.2415 33.2415 33.2415 33.2415 33.2415 16.2788 16.2788 16.2788 16.2788 16.2788 27.7849 27.7849 27.7849 27.7849 27.7849 15.0000
C8 24.0832 47.7074 11.1803 48.6621 19.1050 53.4509 13.4164 16.2788 0.0000 13.0000 24.7386 24.0832 24.0832 24.0832 24.0832 24.0832 56.7539 56.7539 56.7539 56.7539 56.7539 17.0294 17.0294 17.0294 17.0294 17.0294 32.0000 32.0000 32.0000 32.0000 32.0000 43.4626 43.4626 43.4626 43.4626 43.4626 24.0832
C9 16.7631 37.4833 18.6011 35.9026 24.2074 51.0882 6.0828 18.8680 13.0000 0.0000 30.6105 16.7631 16.7631 16.7631 16.7631 16.7631 44.2719 44.2719 44.2719 44.2719 44.2719 22.0227 22.0227 22.0227 22.0227 22.0227 34.5398 34.5398 34.5398 34.5398 34.5398 40.1995 40.1995 40.1995 40.1995 40.1995 16.7631
C10 25.2982 46.0435 13.6015 56.3205 43.1856 34.8281 25.4558 12.0416 24.7386 30.6105 0.0000 25.2982 25.2982 25.2982 25.2982 25.2982 61.8142 61.8142 61.8142 61.8142 61.8142 41.3038 41.3038 41.3038 41.3038 41.3038 10.0000 10.0000 10.0000 10.0000 10.0000 28.0179 28.0179 28.0179 28.0179 28.0179 25.2982
F11 0.0000 24.1661 20.6155 31.0483 40.3113 35.0571 11.6619 15.0000 24.0832 16.7631 25.2982 0.0000 0.0000 0.0000 0.0000 0.0000 37.0540 37.0540 37.0540 37.0540 37.0540 38.0789 38.0789 38.0789 38.0789 38.0789 24.0832 24.0832 24.0832 24.0832 24.0832 24.0208 24.0208 24.0208 24.0208 24.0208 0.0000
F11_1 0.0000 24.1661 20.6155 31.0483 40.3113 35.0571 11.6619 15.0000 24.0832 16.7631 25.2982 0.0000 0.0000 0.0000 0.0000 0.0000 37.0540 37.0540 37.0540 37.0540 37.0540 38.0789 38.0789 38.0789 38.0789 38.0789 24.0832 24.0832 24.0832 24.0832 24.0832 24.0208 24.0208 24.0208 24.0208 24.0208 0.0000
F11_2 0.0000 24.1661 20.6155 31.0483 40.3113 35.0571 11.6619 15.0000 24.0832 16.7631 25.2982 0.0000 0.0000 0.0000 0.0000 0.0000 37.0540 37.0540 37.0540 37.0540 37.0540 38.0789 38.0789 38.0789 38.0789 38.0789 24.0832 24.0832 24.0832 24.0832 24.0832 24.0208 24.0208 24.0208 24.0208 24.0208 0.0000
F11_3 0.0000 24.1661 20.6155 31.0483 40.3113 35.0571 11.6619 15.0000 24.0832 16.7631 25.2982 0.0000 0.0000 0.0000 0.0000 0.0000 37.0540 37.0540 37.0540 37.0540 37.0540 38.0789 38.0789 38.0789 38.0789 38.0789 24.0832 24.0832 24.0832 24.0832 24.0832 24.0208 24.0208 24.0208 24.0208 24.0208 0.0000
F11_4 0.0000 24.1661 20.6155 31.0483 40.3113 35.0571 11.6619 15.0000 24.0832 16.7631 25.2982 0.0000 0.0000 0.0000 0.0000 0.0000 37.0540 37.0540 37.0540 37.0540 37.0540 38.0789 38.0789 38.0789 38.0789 38.0789 24.0832 24.0832 24.0832 24.0832 24.0832 24.0208 24.0208 24.0208 24.0208 24.0208 0.0000
F12 37.0540 19.2094 57.0789 9.2195 65.8635 53.7587 43.7379 52.0384 56.7539 44.2719 61.8142 37.0540 37.0540 37.0540 37.0540 37.0540 0.0000 0.0000 0.0000 0.0000 0.0000 64.0078 64.0078 64.0078 64.0078 64.0078 57.8705 57.8705 57.8705 57.8705 57.8705 46.0435 46.0435 46.0435 46.0435 46.0435 37.0540
F12_1 37.0540 19.2094 57.0789 9.2195 65.8635 53.7587 43.7379 52.0384 56.7539 44.2719 61.8142 37.0540 37.0540 37.0540 37.0540 37.0540 0.0000 0.0000 0.0000 0.0000 0.0000 64.0078 64.0078 64.0078 64.0078 64.0078 57.8705 57.8705 57.8705 57.8705 57.8705 46.0435 46.0435 46.0435 46.0435 46.0435 37.0540
F12_2 37.0540 19.2094 57.0789 9.2195 65.8635 53.7587 43.7379 52.0384 56.7539 44.2719 61.8142 37.0540 37.0540 37.0540 37.0540 37.0540 0.0000 0.0000 0.0000 0.0000 0.0000 64.0078 64.0078 64.0078 64.0078 64.0078 57.8705 57.8705 57.8705 57.8705 57.8705 46.0435 46.0435 46.0435 46.0435 46.0435 37.0540
F12_3 37.0540 19.2094 57.0789 9.2195 65.8635 53.7587 43.7379 52.0384 56.7539 44.2719 61.8142 37.0540 37.0540 37.0540 37.0540 37.0540 0.0000 0.0000 0.0000 0.0000 0.0000 64.0078 64.0078 64.0078 64.0078 64.0078 57.8705 57.8705 57.8705 57.8705 57.8705 46.0435 46.0435 46.0435 46.0435 46.0435 37.0540
F12_4 37.0540 19.2094 57.0789 9.2195 65.8635 53.7587 43.7379 52.0384 56.7539 44.2719 61.8142 37.0540 37.0540 37.0540 37.0540 37.0540 0.0000 0.0000 0.0000 0.0000 0.0000 64.0078 64.0078 64.0078 64.0078 64.0078 57.8705 57.8705 57.8705 57.8705 57.8705 46.0435 46.0435 46.0435 46.0435 46.0435 37.0540
F13 38.0789 59.4138 28.0179 55.0091 2.2361 70.0928 26.4197 33.2415 17.0294 22.0227 41.3038 38.0789 38.0789 38.0789 38.0789 38.0789 64.0078 64.0078 64.0078 64.0078 64.0078 0.0000 0.0000 0.0000 0.0000 0.0000 49.0102 49.0102 49.0102 49.0102 49.0102 59.7746 59.7746 59.7746 59.7746 59.7746 38.0789
F13_1 38.0789 59.4138 28.0179 55.0091 2.2361 70.0928 26.4197 33.2415 17.0294 22.0227 41.3038 38.0789 38.0789 38.0789 38.0789 38.0789 64.0078 64.0078 64.0078 64.0078 64.0078 0.0000 0.0000 0.0000 0.0000 0.0000 49.0102 49.0102 49.0102 49.0102 49.0102 59.7746 59.7746 59.7746 59.7746 59.7746 38.0789
F13_2 38.0789 59.4138 28.0179 55.0091 2.2361 70.0928 26.4197 33.2415 17.0294 22.0227 41.3038 38.0789 38.0789 38.0789 38.0789 38.0789 64.0078 64.0078 64.0078 64.0078 64.0078 0.0000 0.0000 0.0000 0.0000 0.0000 49.0102 49.0102 49.0102 49.0102 49.0102 59.7746 59.7746 59.7746 59.7746 59.7746 38.0789
F13_3 38.0789 59.4138 28.0179 55.0091 2.2361 70.0928 26.4197 33.2415 17.0294 22.0227 41.3038 38.0789 38.0789 38.0789 38.0789 38.0789 64.0078 64.0078 64.0078 64.0078 64.0078 0.0000 0.0000 0.0000 0.0000 0.0000 49.0102 49.0102 49.0102 49.0102 49.0102 59.7746 59.7746 59.7746 59.7746 59.7746 38.0789
F13_4 38.0789 59.4138 28.0179 55.0091 2.2361 70.0928 26.4197 33.2415 17.0294 22.0227 41.3038 38.0789 38.0789 38.0789 38.0789 38.0789 64.0078 64.0078 64.0078 64.0078 64.0078 0.0000 0.0000 0.0000 0.0000 0.0000 49.0102 49.0102 49.0102 49.0102 49.0102 59.7746 59.7746 59.7746 59.7746 59.7746 38.0789
F14 24.0832 40.4475 21.0950 53.6656 51.0392 24.8395 28.6356 16.2788 32.0000 34.5398 10.0000 24.0832 24.0832 24.0832 24.0832 24.0832 57.8705 57.8705 57.8705 57.8705 57.8705 49.0102 49.0102 49.0102 49.0102 49.0102 0.0000 0.0000 0.0000 0.0000 0.0000 18.7883 18.7883 18.7883 18.7883 18.7883 24.0832
F14_1 24.0832 40.4475 21.0950 53.6656 51.0392 24.8395 28.6356 16.2788 32.0000 34.5398 10.0000 24.0832 24.0832 24.0832 24.0832 24.0832 57.8705 57.8705 57.8705 57.8705 57.8705 49.0102 49.0102 49.0102 49.0102 49.0102 0.0000 0.0000 0.0000 0.0000 0.0000 18.7883 18.7883 18.7883 18.7883 18.7883 24.0832
F14_2 24.0832 40.4475 21.0950 53.6656 51.0392 24.8395 28.6356 16.2788 32.0000 34.5398 10.0000 24.0832 24.0832 24.0832 24.0832 24.0832 57.8705 57.8705 57.8705 57.8705 57.8705 49.0102 49.0102 49.0102 49.0102 49.0102 0.0000 0.0000 0.0000 0.0000 0.0000 18.7883 18.7883 18.7883 18.7883 18.7883 24.0832
F14_3 24.0832 40.4475 21.0950 53.6656 51.0392 24.8395 28.6356 16.2788 32.0000 34.5398 10.0000 24.0832 24.0832 24.0832 24.0832 24.0832 57.8705 57.8705 57.8705 57.8705 57.8705 49.0102 49.0102 49.0102 49.0102 49.0102 0.0000 0.0000 0.0000 0.0000 0.0000 18.7883 18.7883 18.7883 18.7883 18.7883 24.0832
F14_4 24.0832 40.4475 21.0950 53.6656 51.0392 24.8395 28.6356 16.2788 32.0000 34.5398 10.0000 24.0832 24.0832 24.0832 24.0832 24.0832 57.8705 57.8705 57.8705 57.8705 57.8705 49.0102 49.0102 49.0102 49.0102 49.0102 0.0000 0.0000 0.0000 0.0000 0.0000 18.7883 18.7883 18.7883 18.7883 18.7883 24.0832
F15 24.0208 26.9258 34.6699 44.5533 61.9839 11.0454 34.3657 27.7849 43.4626 40.1995 28.0179 24.0208 24.0208 24.0208 24.0208 24.0208 46.0435 46.0435 46.0435 46.0435 46.0435 59.7746 59.7746 59.7746 59.7746 59.7746 18.7883 18.7883 18.7883 18.7883 18.7883 0.0000 0.0000 0.0000 0.0000 0.0000 24.0208
F15_1 24.0208 26.9258 34.6699 44.5533 61.9839 11.0454 34.3657 27.7849 43.4626 40.1995 28.0179 24.0208 24.0208 24.0208 24.0208 24.0208 46.0435 46.0435 46.0435 46.0435 46.0435 59.7746 59.7746 59.7746 59.7746 59.7746 18.7883 18.7883 18.7883 18.7883 18.7883 0.0000 0.0000 0.0000 0.0000 0.0000 24.0208
F15_2 24.0208 26.9258 34.6699 44.5533 61.9839 11.0454 34.3657 27.7849 43.4626 40.1995 28.0179 24.0208 24.0208 24.0208 24.0208 24.0208 46.0435 46.0435 46.0435 46.0435 46.0435 59.7746 59.7746 59.7746 59.7746 59.7746 18.7883 18.7883 18.7883 18.7883 18.7883 0.0000 0.0000 0.0000 0.0000 0.0000 24.0208
F15_3 24.0208 26.9258 34.6699 44.5533 61.9839 11.0454 34.3657 27.7849 43.4626 40.1995 28.0179 24.0208 24.0208 24.0208 24.0208 24.0208 46.0435 46.0435 46.0435 46.0435 46.0435 59.7746 59.7746 59.7746 59.7746 59.7746 18.7883 18.7883 18.7883 18.7883 18.7883 0.0000 0.0000 0.0000 0.0000 0.0000 24.0208
F15_4 24.0208 26.9258 34.6699 44.5533 61.9839 11.0454 34.3657 27.7849 43.4626 40.1995 28.0179 24.0208 24.0208 24.0208 24.0208 24.0208 46.0435 46.0435 46.0435 46.0435 46.0435 59.7746 59.7746 59.7746 59.7746 59.7746 18.7883 18.7883 18.7883 18.7883 18.7883 0.0000 0.0000 0.0000 0.0000 0.0000 24.0208
Nσ 0.0000 24.1661 20.6155 31.0483 40.3113 35.0571 11.6619 15.0000 24.0832 16.7631 25.2982 0.0000 0.0000 0.0000 0.0000 0.0000 37.0540 37.0540 37.0540 37.0540 37.0540 38.0789 38.0789 38.0789 38.0789 38.0789 24.0832 24.0832 24.0832 24.0832 24.0832 24.0208 24.0208 24.0208 24.0208 24.0208 0.0000
;

param t : N0 C1 C2 C3 C4 C5 C6 C7 C8 C9 C10 F11 F11_1 F11_2 F11_3 F11_4 F12 F12_1 F12_2 F12_3 F12_4 F13 F13_1 F13_2 F13_3 F13_4 F14 F14_1 F14_2 F14_3 F14_4 F15 F15_1 F15_2 F15_3 F15_4 Nσ  :=
N0 0.0000 24.1661 20.6155 31.0483 40.3113 35.0571 11.6619 15.0000 24.0832 16.7631 25.2982 0.0000 0.0000 0.0000 0.0000 0.0000 37.0540 37.0540 37.0540 37.0540 37.0540 38.0789 38.0789 38.0789 38.0789 38.0789 24.0832 24.0832 24.0832 24.0832 24.0832 24.0208 24.0208 24.0208 24.0208 24.0208 0.0000
C1 24.1661 0.0000 44.5982 19.6977 61.5549 34.6554 34.4093 38.3275 47.7074 37.4833 46.0435 24.1661 24.1661 24.1661 24.1661 24.1661 19.2094 19.2094 19.2094 19.2094 19.2094 59.4138 59.4138 59.4138 59.4138 59.4138 40.4475 40.4475 40.4475 40.4475 40.4475 26.9258 26.9258 26.9258 26.9258 26.9258 24.1661
C2 20.6155 44.5982 0.0000 50.0899 30.0000 43.8634 14.8661 7.0711 11.1803 18.6011 13.6015 20.6155 20.6155 20.6155 20.6155 20.6155 57.0789 57.0789 57.0789 57.0789 57.0789 28.0179 28.0179 28.0179 28.0179 28.0179 21.0950 21.0950 21.0950 21.0950 21.0950 34.6699 34.6699 34.6699 34.6699 34.6699 20.6155
C3 31.0483 19.6977 50.0899 0.0000 56.8243 53.6004 36.0555 45.7056 48.6621 35.9026 56.3205 31.0483 31.0483 31.0483 31.0483 31.0483 9.2195 9.2195 9.2195 9.2195 9.2195 55.0091 55.0091 55.0091 55.0091 55.0091 53.6656 53.6656 53.6656 53.6656 53.6656 44.5533 44.5533 44.5533 44.5533 44.5533 31.0483
C4 40.3113 61.5549 30.0000 56.8243 0.0000 72.2772 28.6531 35.3553 19.1050 24.2074 43.1856 40.3113 40.3113 40.3113 40.3113 40.3113 65.8635 65.8635 65.8635 65.8635 65.8635 2.2361 2.2361 2.2361 2.2361 2.2361 51.0392 51.0392 51.0392 51.0392 51.0392 61.9839 61.9839 61.9839 61.9839 61.9839 40.3113
C5 35.0571 34.6554 43.8634 53.6004 72.2772 0.0000 45.1774 37.3363 53.4509 51.0882 34.8281 35.0571 35.0571 35.0571 35.0571 35.0571 53.7587 53.7587 53.7587 53.7587 53.7587 70.0928 70.0928 70.0928 70.0928 70.0928 24.8395 24.8395 24.8395 24.8395 24.8395 11.0454 11.0454 11.0454 11.0454 11.0454 35.0571
C6 11.6619 34.4093 14.8661 36.0555 28.6531 45.1774 0.0000 13.4536 13.4164 6.0828 25.4558 11.6619 11.6619 11.6619 11.6619 11.6619 43.7379 43.7379 43.7379 43.7379 43.7379 26.4197 26.4197 26.4197 26.4197 26.4197 28.6356 28.6356 28.6356 28.6356 28.6356 34.3657 34.3657 34.3657 34.3657 34.3657 11.6619
C7 15.0000 38.3275 7.0711 45.7056 35.3553 37.3363 13.4536 0.0000 16.2788 18.8680 12.0416 15.0000 15.0000 15.0000 15.0000 15.0000 52.0384 52.0384 52.0384 52.0384 52.0384 33.2415 33.2415 33.2415 33.2415 33.2415 16.2788 16.2788 16.2788 16.2788 16.2788 27.7849 27.7849 27.7849 27.7849 27.7849 15.0000
C8 24.0832 47.7074 11.1803 48.6621 19.1050 53.4509 13.4164 16.2788 0.0000 13.0000 24.7386 24.0832 24.0832 24.0832 24.0832 24.0832 56.7539 56.7539 56.7539 56.7539 56.7539 17.0294 17.0294 17.0294 17.0294 17.0294 32.0000 32.0000 32.0000 32.0000 32.0000 43.4626 43.4626 43.4626 43.4626 43.4626 24.0832
C9 16.7631 37.4833 18.6011 35.9026 24.2074 51.0882 6.0828 18.8680 13.0000 0.0000 30.6105 16.7631 16.7631 16.7631 16.7631 16.7631 44.2719 44.2719 44.2719 44.2719 44.2719 22.0227 22.0227 22.0227 22.0227 22.0227 34.5398 34.5398 34.5398 34.5398 34.5398 40.1995 40.1995 40.1995 40.1995 40.1995 16.7631
C10 25.2982 46.0435 13.6015 56.3205 43.1856 34.8281 25.4558 12.0416 24.7386 30.6105 0.0000 25.2982 25.2982 25.2982 25.2982 25.2982 61.8142 61.8142 61.8142 61.8142 61.8142 41.3038 41.3038 41.3038 41.3038 41.3038 10.0000 10.0000 10.0000 10.0000 10.0000 28.0179 28.0179 28.0179 28.0179 28.0179 25.2982
F11 0.0000 24.1661 20.6155 31.0483 40.3113 35.0571 11.6619 15.0000 24.0832 16.7631 25.2982 0.0000 0.0000 0.0000 0.0000 0.0000 37.0540 37.0540 37.0540 37.0540 37.0540 38.0789 38.0789 38.0789 38.0789 38.0789 24.0832 24.0832 24.0832 24.0832 24.0832 24.0208 24.0208 24.0208 24.0208 24.0208 0.0000
F11_1 0.0000 24.1661 20.6155 31.0483 40.3113 35.0571 11.6619 15.0000 24.0832 16.7631 25.2982 0.0000 0.0000 0.0000 0.0000 0.0000 37.0540 37.0540 37.0540 37.0540 37.0540 38.0789 38.0789 38.0789 38.0789 38.0789 24.0832 24.0832 24.0832 24.0832 24.0832 24.0208 24.0208 24.0208 24.0208 24.0208 0.0000
F11_2 0.0000 24.1661 20.6155 31.0483 40.3113 35.0571 11.6619 15.0000 24.0832 16.7631 25.2982 0.0000 0.0000 0.0000 0.0000 0.0000 37.0540 37.0540 37.0540 37.0540 37.0540 38.0789 38.0789 38.0789 38.0789 38.0789 24.0832 24.0832 24.0832 24.0832 24.0832 24.0208 24.0208 24.0208 24.0208 24.0208 0.0000
F11_3 0.0000 24.1661 20.6155 31.0483 40.3113 35.0571 11.6619 15.0000 24.0832 16.7631 25.2982 0.0000 0.0000 0.0000 0.0000 0.0000 37.0540 37.0540 37.0540 37.0540 37.0540 38.0789 38.0789 38.0789 38.0789 38.0789 24.0832 24.0832 24.0832 24.0832 24.0832 24.0208 24.0208 24.0208 24.0208 24.0208 0.0000
F11_4 0.0000 24.1661 20.6155 31.0483 40.3113 35.0571 11.6619 15.0000 24.0832 16.7631 25.2982 0.0000 0.0000 0.0000 0.0000 0.0000 37.0540 37.0540 37.0540 37.0540 37.0540 38.0789 38.0789 38.0789 38.0789 38.0789 24.0832 24.0832 24.0832 24.0832 24.0832 24.0208 24.0208 24.0208 24.0208 24.0208 0.0000
F12 37.0540 19.2094 57.0789 9.2195 65.8635 53.7587 43.7379 52.0384 56.7539 44.2719 61.8142 37.0540 37.0540 37.0540 37.0540 37.0540 0.0000 0.0000 0.0000 0.0000 0.0000 64.0078 64.0078 64.0078 64.0078 64.0078 57.8705 57.8705 57.8705 57.8705 57.8705 46.0435 46.0435 46.0435 46.0435 46.0435 37.0540
F12_1 37.0540 19.2094 57.0789 9.2195 65.8635 53.7587 43.7379 52.0384 56.7539 44.2719 61.8142 37.0540 37.0540 37.0540 37.0540 37.0540 0.0000 0.0000 0.0000 0.0000 0.0000 64.0078 64.0078 64.0078 64.0078 64.0078 57.8705 57.8705 57.8705 57.8705 57.8705 46.0435 46.0435 46.0435 46.0435 46.0435 37.0540
F12_2 37.0540 19.2094 57.0789 9.2195 65.8635 53.7587 43.7379 52.0384 56.7539 44.2719 61.8142 37.0540 37.0540 37.0540 37.0540 37.0540 0.0000 0.0000 0.0000 0.0000 0.0000 64.0078 64.0078 64.0078 64.0078 64.0078 57.8705 57.8705 57.8705 57.8705 57.8705 46.0435 46.0435 46.0435 46.0435 46.0435 37.0540
F12_3 37.0540 19.2094 57.0789 9.2195 65.8635 53.7587 43.7379 52.0384 56.7539 44.2719 61.8142 37.0540 37.0540 37.0540 37.0540 37.0540 0.0000 0.0000 0.0000 0.0000 0.0000 64.0078 64.0078 64.0078 64.0078 64.0078 57.8705 57.8705 57.8705 57.8705 57.8705 46.0435 46.0435 46.0435 46.0435 46.0435 37.0540
F12_4 37.0540 19.2094 57.0789 9.2195 65.8635 53.7587 43.7379 52.0384 56.7539 44.2719 61.8142 37.0540 37.0540 37.0540 37.0540 37.0540 0.0000 0.0000 0.0000 0.0000 0.0000 64.0078 64.0078 64.0078 64.0078 64.0078 57.8705 57.8705 57.8705 57.8705 57.8705 46.0435 46.0435 46.0435 46.0435 46.0435 37.0540
F13 38.0789 59.4138 28.0179 55.0091 2.2361 70.0928 26.4197 33.2415 17.0294 22.0227 41.3038 38.0789 38.0789 38.0789 38.0789 38.0789 64.0078 64.0078 64.0078 64.0078 64.0078 0.0000 0.0000 0.0000 0.0000 0.0000 49.0102 49.0102 49.0102 49.0102 49.0102 59.7746 59.7746 59.7746 59.7746 59.7746 38.0789
F13_1 38.0789 59.4138 28.0179 55.0091 2.2361 70.0928 26.4197 33.2415 17.0294 22.0227 41.3038 38.0789 38.0789 38.0789 38.0789 38.0789 64.0078 64.0078 64.0078 64.0078 64.0078 0.0000 0.0000 0.0000 0.0000 0.0000 49.0102 49.0102 49.0102 49.0102 49.0102 59.7746 59.7746 59.7746 59.7746 59.7746 38.0789
F13_2 38.0789 59.4138 28.0179 55.0091 2.2361 70.0928 26.4197 33.2415 17.0294 22.0227 41.3038 38.0789 38.0789 38.0789 38.0789 38.0789 64.0078 64.0078 64.0078 64.0078 64.0078 0.0000 0.0000 0.0000 0.0000 0.0000 49.0102 49.0102 49.0102 49.0102 49.0102 59.7746 59.7746 59.7746 59.7746 59.7746 38.0789
F13_3 38.0789 59.4138 28.0179 55.0091 2.2361 70.0928 26.4197 33.2415 17.0294 22.0227 41.3038 38.0789 38.0789 38.0789 38.0789 38.0789 64.0078 64.0078 64.0078 64.0078 64.0078 0.0000 0.0000 0.0000 0.0000 0.0000 49.0102 49.0102 49.0102 49.0102 49.0102 59.7746 59.7746 59.7746 59.7746 59.7746 38.0789
F13_4 38.0789 59.4138 28.0179 55.0091 2.2361 70.0928 26.4197 33.2415 17.0294 22.0227 41.3038 38.0789 38.0789 38.0789 38.0789 38.0789 64.0078 64.0078 64.0078 64.0078 64.0078 0.0000 0.0000 0.0000 0.0000 0.0000 49.0102 49.0102 49.0102 49.0102 49.0102 59.7746 59.7746 59.7746 59.7746 59.7746 38.0789
F14 24.0832 40.4475 21.0950 53.6656 51.0392 24.8395 28.6356 16.2788 32.0000 34.5398 10.0000 24.0832 24.0832 24.0832 24.0832 24.0832 57.8705 57.8705 57.8705 57.8705 57.8705 49.0102 49.0102 49.0102 49.0102 49.0102 0.0000 0.0000 0.0000 0.0000 0.0000 18.7883 18.7883 18.7883 18.7883 18.7883 24.0832
F14_1 24.0832 40.4475 21.0950 53.6656 51.0392 24.8395 28.6356 16.2788 32.0000 34.5398 10.0000 24.0832 24.0832 24.0832 24.0832 24.0832 57.8705 57.8705 57.8705 57.8705 57.8705 49.0102 49.0102 49.0102 49.0102 49.0102 0.0000 0.0000 0.0000 0.0000 0.0000 18.7883 18.7883 18.7883 18.7883 18.7883 24.0832
F14_2 24.0832 40.4475 21.0950 53.6656 51.0392 24.8395 28.6356 16.2788 32.0000 34.5398 10.0000 24.0832 24.0832 24.0832 24.0832 24.0832 57.8705 57.8705 57.8705 57.8705 57.8705 49.0102 49.0102 49.0102 49.0102 49.0102 0.0000 0.0000 0.0000 0.0000 0.0000 18.7883 18.7883 18.7883 18.7883 18.7883 24.0832
F14_3 24.0832 40.4475 21.0950 53.6656 51.0392 24.8395 28.6356 16.2788 32.0000 34.5398 10.0000 24.0832 24.0832 24.0832 24.0832 24.0832 57.8705 57.8705 57.8705 57.8705 57.8705 49.0102 49.0102 49.0102 49.0102 49.0102 0.0000 0.0000 0.0000 0.0000 0.0000 18.7883 18.7883 18.7883 18.7883 18.7883 24.0832
F14_4 24.0832 40.4475 21.0950 53.6656 51.0392 24.8395 28.6356 16.2788 32.0000 34.5398 10.0000 24.0832 24.0832 24.0832 24.0832 24.0832 57.8705 57.8705 57.8705 57.8705 57.8705 49.0102 49.0102 49.0102 49.0102 49.0102 0.0000 0.0000 0.0000 0.0000 0.0000 18.7883 18.7883 18.7883 18.7883 18.7883 24.0832
F15 24.0208 26.9258 34.6699 44.5533 61.9839 11.0454 34.3657 27.7849 43.4626 40.1995 28.0179 24.0208 24.0208 24.0208 24.0208 24.0208 46.0435 46.0435 46.0435 46.0435 46.0435 59.7746 59.7746 59.7746 59.7746 59.7746 18.7883 18.7883 18.7883 18.7883 18.7883 0.0000 0.0000 0.0000 0.0000 0.0000 24.0208
F15_1 24.0208 26.9258 34.6699 44.5533 61.9839 11.0454 34.3657 27.7849 43.4626 40.1995 28.0179 24.0208 24.0208 24.0208 24.0208 24.0208 46.0435 46.0435 46.0435 46.0435 46.0435 59.7746 59.7746 59.7746 59.7746 59.7746 18.7883 18.7883 18.7883 18.7883 18.7883 0.0000 0.0000 0.0000 0.0000 0.0000 24.0208
F15_2 24.0208 26.9258 34.6699 44.5533 61.9839 11.0454 34.3657 27.7849 43.4626 40.1995 28.0179 24.0208 24.0208 24.0208 24.0208 24.0208 46.0435 46.0435 46.0435 46.0435 46.0435 59.7746 59.7746 59.7746 59.7746 59.7746 18.7883 18.7883 18.7883 18.7883 18.7883 0.0000 0.0000 0.0000 0.0000 0.0000 24.0208
F15_3 24.0208 26.9258 34.6699 44.5533 61.9839 11.0454 34.3657 27.7849 43.4626 40.1995 28.0179 24.0208 24.0208 24.0208 24.0208 24.0208 46.0435 46.0435 46.0435 46.0435 46.0435 59.7746 59.7746 59.7746 59.7746 59.7746 18.7883 18.7883 18.7883 18.7883 18.7883 0.0000 0.0000 0.0000 0.0000 0.0000 24.0208
F15_4 24.0208 26.9258 34.6699 44.5533 61.9839 11.0454 34.3657 27.7849 43.4626 40.1995 28.0179 24.0208 24.0208 24.0208 24.0208 24.0208 46.0435 46.0435 46.0435 46.0435 46.0435 59.7746 59.7746 59.7746 59.7746 59.7746 18.7883 18.7883 18.7883 18.7883 18.7883 0.0000 0.0000 0.0000 0.0000 0.0000 24.0208
Nσ 0.0000 24.1661 20.6155 31.0483 40.3113 35.0571 11.6619 15.0000 24.0832 16.7631 25.2982 0.0000 0.0000 0.0000 0.0000 0.0000 37.0540 37.0540 37.0540 37.0540 37.0540 38.0789 38.0789 38.0789 38.0789 38.0789 24.0832 24.0832 24.0832 24.0832 24.0832 24.0208 24.0208 24.0208 24.0208 24.0208 0.0000
;
